6 6 61
4 5 1 5 2 1 1 2 2 4 14 14 28 28 38 38 58 
3 3 1 3 2 4 3 26 34 34 52 52 61 
3 6 1 6 2 1 2 18 29 29 43 43 60 
5 4 1 2 1 4 2 5 3 6 3 6 17 17 25 25 38 38 50 50 61 
7 4 1 6 1 6 1 1 1 1 1 5 3 4 3 0 6 6 10 10 18 18 24 24 28 28 30 38 48 
9 5 1 2 1 2 1 3 1 3 1 2 2 2 2 1 2 6 3 0 4 4 10 10 16 16 20 20 26 26 30 30 38 38 42 43 45 
